10
0 8696 1762 1507 4043 281 8161 8806 1198 9040
1726 0 8343 627 536 94 2234 8297 9316 7711
3935 4708 0 2043 2863 124 8718 2835 6340 1598
9696 9891 5540 0 3688 5392 9101 3530 6262 6153
3249 7576 6314 2702 0 4887 9672 6584 1703 3059
2406 8894 2781 8560 1842 0 8344 2014 1527 3172
604 6839 5414 6094 7215 6706 0 5147 8890 2972
7305 672 967 4991 7455 5354 4077 0 8943 7653
2976 3109 1342 8180 1139 5476 1232 4784 0 2537
1569 3341 6331 8900 2006 3305 6894 7829 8856 0